1 1 -2 0
1 -1 -3 0
1 -1 4 0
1 -5 6 0
1 -5 2 0
1 5 -1 0
1 -7 8 0
1 -7 9 0
1 7 -10 0
1 -11 8 0
1 -11 12 0
1 11 -13 0
1 -11 -14 0
1 -11 -15 0
1 -11 7 0
1 -14 -16 0
1 14 -17 0
1 14 -18 0
1 -14 -11 0
1 -14 -5 0
1 14 19 0
1 -14 20 0
1 14 -21 0
1 -14 1 0
1 -10 -22 0
1 10 18 0
1 -10 11 0
1 -10 5 0
1 10 14 0
1 -10 -23 0
1 2 16 0
1 2 -24 0
1 3 -16 0
1 -3 -11 0
1 -3 25 0
1 3 26 0
1 21 -8 0
1 -21 -12 0
1 21 9 0
1 -18 12 0
1 -18 -15 0
1 -18 21 0
1 18 10 0
1 -23 17 0
1 23 27 0
1 -23 -14 0
1 -23 -28 0
1 23 29 0
1 -23 -10 0
1 17 -8 0
1 17 12 0
1 -17 14 0
1 -17 23 0
1 17 28 0
1 -17 10 0
1 -15 30 0
1 -15 -31 0
1 -15 17 0
1 15 18 0
1 -15 -11 0
1 15 32 0
1 -15 33 0
1 -15 34 0
1 15 23 0
1 15 -7 0
1 15 35 0
1 12 36 0
1 12 17 0
1 -12 23 0
1 12 21 0
1 12 7 0
1 -12 35 0
1 9 -37 0
1 9 17 0
1 9 18 0
1 9 -11 0
1 9 38 0
1 9 39 0
1 9 23 0
1 -9 21 0
1 9 7 0
1 -8 -37 0
1 -8 40 0
1 8 -20 0
1 -8 -23 0
1 8 -7 0
1 8 -35 0
1 33 12 0
1 33 15 0
1 -33 28 0
1 -33 -29 0
1 31 12 0
1 31 27 0
1 -31 41 0
1 31 -33 0
1 -31 -15 0
1 -31 -29 0
1 -42 12 0
1 -42 -27 0
1 -42 38 0
1 -42 -28 0
1 30 37 0
1 30 27 0
1 30 -29 0
1 -29 30 0
1 -29 31 0
1 29 -17 0
1 -29 -41 0
1 29 42 0
1 29 33 0
1 -29 -23 0
1 29 -43 0
1 41 31 0
1 41 -17 0
1 41 44 0
1 -41 45 0
1 41 42 0
1 41 -23 0
1 -41 -29 0
1 41 -43 0
1 -28 -30 0
1 -28 31 0
1 -28 -17 0
1 28 27 0
1 28 -45 0
1 28 42 0
1 28 -46 0
1 -28 -43 0
1 -28 35 0
1 27 -31 0
1 27 -47 0
1 -27 -45 0
1 -27 48 0
1 27 -32 0
1 27 43 0
1 27 35 0
1 4 49 0
1 4 -50 0
1 4 51 0
1 4 -1 0
1 6 -52 0
1 -6 -53 0
1 6 50 0
1 -6 51 0
1 6 -4 0
1 -54 -52 0
1 54 55 0
1 -54 -56 0
1 54 50 0
1 13 -55 0
1 -13 56 0
1 -13 -11 0
1 -13 50 0
1 13 57 0
1 13 -54 0
1 -52 6 0
1 -52 58 0
1 51 59 0
1 -51 -13 0
1 51 -25 0
1 -49 -60 0
1 49 61 0
1 -49 -62 0
1 -49 -50 0
1 49 -58 0
1 -49 -63 0
1 -50 49 0
1 50 60 0
1 50 13 0
1 -50 64 0
1 -50 58 0
1 -50 -4 0
1 -25 52 0
1 -25 -59 0
1 25 51 0
1 -25 -21 0
1 -25 -65 0
1 -59 -52 0
1 -59 62 0
1 -59 -66 0
1 -59 57 0
1 59 25 0
1 59 3 0
1 67 -52 0
1 -67 68 0
1 -67 2 0
1 67 -66 0
1 67 23 0
1 67 57 0
1 -67 69 0
1 -67 -70 0
1 68 52 0
1 -68 -17 0
1 -68 -61 0
1 -68 71 0
1 -68 66 0
1 68 -67 0
1 -68 69 0
1 -68 70 0
1 68 3 0
1 -56 72 0
1 -56 -16 0
1 56 59 0
1 56 -73 0
1 -56 -74 0
1 -56 -38 0
1 56 -67 0
1 -56 25 0
1 -57 72 0
1 -57 16 0
1 -57 -68 0
1 57 59 0
1 57 56 0
1 -57 13 0
1 -57 20 0
1 -55 -72 0
1 55 75 0
1 55 -60 0
1 55 -68 0
1 -55 13 0
1 55 -74 0
1 -55 -76 0
1 -55 66 0
1 66 -55 0
1 66 -59 0
1 -66 13 0
1 66 -76 0
1 -66 -77 0
1 20 78 0
1 20 -2 0
1 20 -9 0
1 20 58 0
1 20 69 0
1 20 70 0
1 16 8 0
1 -16 -60 0
1 16 71 0
1 -16 -2 0
1 -16 -9 0
1 -16 -20 0
1 -16 -70 0
1 -38 22 0
1 -38 -37 0
1 38 56 0
1 38 78 0
1 38 -24 0
1 38 19 0
1 38 -9 0
1 -38 -69 0
1 38 70 0
1 37 22 0
1 37 -30 0
1 -37 -8 0
1 -37 56 0
1 -37 78 0
1 -37 9 0
1 37 -57 0
1 -37 -69 0
1 37 70 0
1 71 37 0
1 71 16 0
1 -71 79 0
1 71 -48 0
1 -71 -80 0
1 -71 38 0
1 -71 -20 0
1 -71 81 0
1 -71 -35 0
1 -70 -16 0
1 -70 -71 0
1 70 48 0
1 70 32 0
1 -70 -82 0
1 70 -38 0
1 70 -20 0
1 70 83 0
1 70 35 0
1 78 38 0
1 -78 20 0
1 78 67 0
1 -78 -69 0
1 -78 -81 0
1 -69 -16 0
1 -69 -68 0
1 69 79 0
1 69 -84 0
1 32 -12 0
1 32 27 0
1 -32 24 0
1 32 9 0
1 -32 -28 0
1 32 -26 0
1 32 35 0
1 -35 -8 0
1 35 12 0
1 35 27 0
1 -35 -32 0
1 35 -19 0
1 -35 26 0
1 -48 -22 0
1 -48 36 0
1 48 27 0
1 -48 -24 0
1 -48 -19 0
1 -48 34 0
1 -48 28 0
1 -48 70 0
1 83 -22 0
1 83 36 0
1 83 27 0
1 -83 -71 0
1 -83 -24 0
1 -83 19 0
1 83 39 0
1 -83 -34 0
1 83 28 0
1 -83 26 0
1 -83 -85 0
1 -19 86 0
1 -19 87 0
1 19 -48 0
1 19 -14 0
1 19 -88 0
1 -19 38 0
1 -19 -89 0
1 -19 -90 0
1 -19 83 0
1 -22 -91 0
1 -22 87 0
1 22 45 0
1 22 -48 0
1 -22 -32 0
1 22 -10 0
1 -22 43 0
1 -22 35 0
1 -24 -79 0
1 -24 32 0
1 24 -89 0
1 -24 -92 0
1 -24 81 0
1 24 83 0
1 24 -26 0
1 -26 -37 0
1 26 93 0
1 -26 79 0
1 -26 48 0
1 -26 89 0
1 26 81 0
1 26 83 0
1 26 94 0
1 -26 35 0
1 -45 -40 0
1 45 27 0
1 -45 79 0
1 45 39 0
1 45 -28 0
1 -43 -27 0
1 43 41 0
1 43 19 0
1 43 -39 0
1 43 28 0
1 -43 29 0
1 -43 -81 0
1 -87 -22 0
1 87 -40 0
1 -87 36 0
1 -87 -47 0
1 87 -90 0
1 87 -19 0
1 87 -39 0
1 87 95 0
1 -90 36 0
1 -90 87 0
1 -90 -39 0
1 90 92 0
1 -34 36 0
1 -34 -96 0
1 -34 -87 0
1 -34 -48 0
1 -34 97 0
1 34 -98 0
1 34 90 0
1 -34 43 0
1 36 -99 0
1 36 87 0
1 36 48 0
1 36 100 0
1 36 97 0
1 36 -101 0
1 36 -90 0
1 36 -83 0
1 39 -40 0
1 39 -99 0
1 39 87 0
1 -39 48 0
1 -39 -9 0
1 39 102 0
1 39 -90 0
1 39 -43 0
1 -39 -83 0
1 -40 -8 0
1 -40 99 0
1 40 103 0
1 40 -45 0
1 40 -48 0
1 -40 100 0
1 40 39 0
1 -40 43 0
1 -40 -83 0
1 -96 36 0
1 96 47 0
1 -96 44 0
1 96 -86 0
1 96 -46 0
1 96 101 0
1 -101 47 0
1 101 96 0
1 -101 44 0
1 -104 -97 0
1 -104 95 0
1 97 -104 0
1 97 47 0
1 97 44 0
1 97 34 0
1 97 -105 0
1 -97 -46 0
1 -95 -104 0
1 95 -96 0
1 95 -44 0
1 95 106 0
1 44 -41 0
1 44 -107 0
1 -44 -97 0
1 44 -101 0
1 46 108 0
1 46 99 0
1 -46 -96 0
1 46 -87 0
1 -46 -106 0
1 46 109 0
1 -46 100 0
1 46 -97 0
1 -46 28 0
1 46 -101 0
1 46 -110 0
1 46 -90 0
1 -47 111 0
1 -47 99 0
1 47 -104 0
1 47 46 0
1 47 -100 0
1 -47 -101 0
1 -112 113 0
1 -112 -114 0
1 53 -115 0
1 -53 -113 0
1 -116 117 0
1 116 115 0
1 -116 118 0
1 -116 -119 0
1 116 -120 0
1 121 117 0
1 121 115 0
1 -121 -13 0
1 -121 122 0
1 -121 119 0
1 121 -123 0
1 121 116 0
1 -113 -61 0
1 113 -115 0
1 113 -121 0
1 -113 63 0
1 113 65 0
1 -113 -116 0
1 -115 -124 0
1 115 -62 0
1 115 -53 0
1 115 116 0
1 -119 -125 0
1 -119 -117 0
1 119 126 0
1 -119 -121 0
1 -119 -53 0
1 119 -127 0
1 -119 -128 0
1 119 116 0
1 -119 112 0
1 117 126 0
1 -117 -129 0
1 -117 -130 0
1 117 -128 0
1 -65 49 0
1 65 115 0
1 -65 122 0
1 -65 113 0
1 -65 25 0
1 65 123 0
1 62 -49 0
1 62 115 0
1 62 59 0
1 -62 122 0
1 -62 -120 0
1 -62 -50 0
1 -62 65 0
1 62 -123 0
1 63 131 0
1 63 49 0
1 63 -61 0
1 63 122 0
1 63 50 0
1 63 -113 0
1 -63 120 0
1 63 -132 0
1 -61 131 0
1 61 -49 0
1 -61 -113 0
1 -61 126 0
1 61 -122 0
1 61 -133 0
1 61 120 0
1 -61 -123 0
1 -123 -134 0
1 123 -75 0
1 -123 -62 0
1 -123 121 0
1 123 -65 0
1 123 135 0
1 122 -136 0
1 120 134 0
1 120 137 0
1 -120 61 0
1 120 138 0
1 120 116 0
1 118 137 0
1 -118 -139 0
1 118 121 0
1 118 140 0
1 118 127 0
1 118 116 0
1 -58 49 0
1 58 -52 0
1 58 60 0
1 58 -55 0
1 -58 122 0
1 58 133 0
1 58 -50 0
1 58 -51 0
1 58 20 0
1 -58 127 0
1 60 -55 0
1 60 122 0
1 -60 133 0
1 60 58 0
1 76 -141 0
1 76 142 0
1 76 -122 0
1 -76 143 0
1 76 -64 0
1 76 144 0
1 76 66 0
1 76 -140 0
1 76 123 0
1 76 132 0
1 -75 131 0
1 -75 -37 0
1 75 141 0
1 75 -137 0
1 -75 142 0
1 -75 122 0
1 -75 66 0
1 -131 -72 0
1 -131 75 0
1 131 60 0
1 -131 143 0
1 131 -76 0
1 131 -58 0
1 -143 -131 0
1 143 -61 0
1 -143 -145 0
1 143 84 0
1 -143 76 0
1 132 -146 0
1 132 61 0
1 -132 -145 0
1 132 147 0
1 -132 -148 0
1 -133 -61 0
1 -133 -145 0
1 133 149 0
1 -133 -58 0
1 133 63 0
1 133 -150 0
1 133 132 0
1 74 -131 0
1 74 141 0
1 -74 142 0
1 74 -56 0
1 -74 78 0
1 -74 143 0
1 -74 -32 0
1 74 -147 0
1 -74 64 0
1 -74 66 0
1 72 -131 0
1 72 142 0
1 -72 -55 0
1 -72 -56 0
1 72 143 0
1 -72 -144 0
1 72 69 0
1 72 -35 0
1 -84 -131 0
1 84 -78 0
1 -84 -48 0
1 84 -151 0
1 -84 -144 0
1 84 -69 0
1 -85 -131 0
1 85 142 0
1 85 152 0
1 85 -83 0
1 -142 -52 0
1 -142 -153 0
1 -142 -154 0
1 -142 -93 0
1 142 76 0
1 142 155 0
1 142 -81 0
1 144 72 0
1 -144 75 0
1 -144 142 0
1 144 79 0
1 144 -156 0
1 144 -92 0
1 141 -49 0
1 141 64 0
1 141 -157 0
1 141 85 0
1 64 -72 0
1 -64 155 0
1 -64 157 0
1 79 -142 0
1 -79 73 0
1 79 -45 0
1 -79 145 0
1 79 -24 0
1 -79 -77 0
1 79 -70 0
1 -79 -26 0
1 -81 -152 0
1 81 -78 0
1 81 71 0
1 -81 24 0
1 -81 144 0
1 81 158 0
1 81 -69 0
1 81 43 0
1 81 150 0
1 -93 -142 0
1 93 -159 0
1 93 -73 0
1 93 160 0
1 -93 -144 0
1 93 -158 0
1 93 26 0
1 -92 -80 0
1 92 24 0
1 92 -144 0
1 -92 158 0
1 92 159 0
1 -73 -158 0
1 73 161 0
1 -73 -103 0
1 73 -86 0
1 -73 -162 0
1 73 -163 0
1 -73 89 0
1 -73 92 0
1 158 86 0
1 -158 -93 0
1 158 -79 0
1 158 84 0
1 158 163 0
1 -158 -57 0
1 158 -164 0
1 158 81 0
1 -152 -161 0
1 -152 55 0
1 152 84 0
1 -152 -163 0
1 -152 -155 0
1 -152 -92 0
1 -152 81 0
1 152 85 0
1 -77 -161 0
1 77 -165 0
1 77 -166 0
1 77 154 0
1 77 -93 0
1 77 79 0
1 -77 84 0
1 77 -163 0
1 -77 66 0
1 77 92 0
1 -86 22 0
1 -86 -96 0
1 86 154 0
1 -86 160 0
1 -86 24 0
1 86 -89 0
1 89 22 0
1 -89 -73 0
1 -89 -24 0
1 -89 -39 0
1 89 155 0
1 -89 -159 0
1 -89 26 0
1 103 91 0
1 103 -104 0
1 103 166 0
1 -103 73 0
1 103 -160 0
1 -103 -80 0
1 103 -158 0
1 -103 82 0
1 -103 94 0
1 105 91 0
1 -105 -73 0
1 105 160 0
1 105 80 0
1 105 -167 0
1 -105 88 0
1 -105 -97 0
1 105 -168 0
1 -105 -159 0
1 80 -169 0
1 -80 108 0
1 80 -103 0
1 -80 -86 0
1 80 170 0
1 80 -92 0
1 -80 -82 0
1 -82 -169 0
1 -82 -170 0
1 -82 109 0
1 82 -105 0
1 82 89 0
1 -82 -92 0
1 160 159 0
1 -160 -78 0
1 -160 -171 0
1 159 169 0
1 159 160 0
1 -159 -172 0
1 -159 163 0
1 159 -105 0
1 159 69 0
1 159 -92 0
1 99 40 0
1 99 -36 0
1 -99 47 0
1 99 80 0
1 -99 -167 0
1 -99 -39 0
1 99 34 0
1 -99 46 0
1 -99 82 0
1 100 40 0
1 100 99 0
1 -100 -36 0
1 100 -47 0
1 100 -80 0
1 -100 -39 0
1 -100 -163 0
1 100 34 0
1 100 46 0
1 -100 82 0
1 -100 -94 0
1 -108 173 0
1 108 174 0
1 -108 175 0
1 -108 -47 0
1 -108 80 0
1 -108 -167 0
1 108 109 0
1 108 102 0
1 -108 98 0
1 108 -46 0
1 108 94 0
1 109 -91 0
1 -109 172 0
1 109 88 0
1 109 46 0
1 -109 -82 0
1 -88 111 0
1 -88 91 0
1 88 108 0
1 88 -103 0
1 88 176 0
1 88 109 0
1 -88 19 0
1 -88 100 0
1 88 -177 0
1 -88 -105 0
1 -88 -178 0
1 88 179 0
1 91 22 0
1 91 108 0
1 -91 -180 0
1 91 -99 0
1 91 -103 0
1 91 181 0
1 91 106 0
1 91 -109 0
1 -91 -88 0
1 -91 -100 0
1 -91 -105 0
1 91 179 0
1 -167 -108 0
1 167 -99 0
1 -167 24 0
1 167 170 0
1 -167 109 0
1 167 -182 0
1 -167 100 0
1 94 -183 0
1 94 169 0
1 -94 108 0
1 -94 -99 0
1 -94 -103 0
1 94 176 0
1 94 184 0
1 94 -170 0
1 -94 100 0
1 94 -105 0
1 -94 26 0
1 -111 169 0
1 111 -98 0
1 -111 46 0
1 106 -111 0
1 106 91 0
1 106 174 0
1 106 175 0
1 -106 44 0
1 -106 98 0
1 -106 -46 0
1 106 -95 0
1 -179 -88 0
1 -179 -102 0
1 -179 185 0
1 -181 -174 0
1 181 -184 0
1 181 110 0
1 181 179 0
1 -98 -108 0
1 98 186 0
1 -98 -187 0
1 98 -188 0
1 -98 189 0
1 98 -190 0
1 -98 -191 0
1 98 192 0
1 -175 36 0
1 -175 181 0
1 -175 106 0
1 -175 109 0
1 -175 -190 0
1 -175 -191 0
1 175 179 0
1 -102 174 0
1 -102 193 0
1 102 181 0
1 -102 106 0
1 -102 -109 0
1 102 -39 0
1 102 -194 0
1 102 -190 0
1 102 178 0
1 102 -179 0
1 -174 -176 0
1 174 -181 0
1 174 -106 0
1 174 102 0
1 174 -190 0
1 -174 -195 0
1 192 -175 0
1 192 -196 0
1 192 188 0
1 192 -98 0
1 -192 110 0
1 192 185 0
1 188 -196 0
1 188 -110 0
1 188 185 0
1 -188 -192 0
1 191 -107 0
1 191 110 0
1 -191 185 0
1 187 -185 0
1 -187 -193 0
1 187 -98 0
1 -187 191 0
1 185 197 0
1 -185 187 0
1 185 -191 0
1 185 198 0
1 185 -179 0
1 107 -187 0
1 107 188 0
1 107 199 0
1 107 -192 0
1 -110 197 0
1 -110 -200 0
1 -110 201 0
1 110 -191 0
1 110 -179 0
1 196 -197 0
1 -196 -200 0
1 196 -188 0
1 196 199 0
1 -196 201 0
1 196 -110 0
1 196 -191 0
1 196 192 0
1 -196 179 0
1 114 -202 0
1 114 203 0
1 -114 204 0
1 -114 205 0
1 203 -204 0
1 -203 -205 0
1 -206 -202 0
1 206 -207 0
1 206 116 0
1 208 121 0
1 208 -202 0
1 -208 207 0
1 -208 204 0
1 208 -205 0
1 -202 126 0
1 202 -208 0
1 -202 203 0
1 -205 126 0
1 205 203 0
1 -205 130 0
1 205 -206 0
1 209 -208 0
1 209 204 0
1 204 -209 0
1 204 -206 0
1 -204 114 0
1 128 -202 0
1 128 210 0
1 128 -207 0
1 -128 -211 0
1 -129 -117 0
1 -129 -202 0
1 129 207 0
1 129 -212 0
1 -130 213 0
1 130 126 0
1 -130 -202 0
1 130 210 0
1 -130 207 0
1 -130 -214 0
1 -130 119 0
1 -130 205 0
1 126 117 0
1 -126 61 0
1 126 207 0
1 126 215 0
1 -126 -130 0
1 126 -212 0
1 126 -211 0
1 207 -216 0
1 207 -137 0
1 -207 139 0
1 -207 -217 0
1 -207 130 0
1 -207 -128 0
1 -207 -206 0
1 -207 211 0
1 -211 218 0
1 -211 216 0
1 211 -137 0
1 211 208 0
1 -211 -207 0
1 211 -217 0
1 211 140 0
1 211 127 0
1 211 -130 0
1 -210 216 0
1 210 -126 0
1 210 208 0
1 210 -219 0
1 210 217 0
1 210 128 0
1 210 -206 0
1 -212 -216 0
1 -212 -129 0
1 -212 -217 0
1 -212 220 0
1 -127 213 0
1 -127 -113 0
1 127 139 0
1 127 117 0
1 -127 118 0
1 -127 -215 0
1 -127 214 0
1 127 -119 0
1 -127 -211 0
1 139 221 0
1 139 -60 0
1 -139 -117 0
1 139 -115 0
1 139 207 0
1 -139 215 0
1 139 214 0
1 -139 -127 0
1 139 113 0
1 139 -120 0
1 139 211 0
1 140 213 0
1 140 -222 0
1 140 124 0
1 -140 207 0
1 -140 215 0
1 140 -76 0
1 140 -214 0
1 137 -207 0
1 137 -125 0
1 -137 -223 0
1 137 -211 0
1 214 -221 0
1 214 137 0
1 214 -126 0
1 -214 151 0
1 214 147 0
1 -214 -140 0
1 214 224 0
1 -214 130 0
1 -221 -137 0
1 221 -225 0
1 -221 -139 0
1 -221 126 0
1 -221 -226 0
1 -221 -140 0
1 -221 -127 0
1 -221 -227 0
1 -221 148 0
1 215 216 0
1 215 -137 0
1 -215 -139 0
1 -215 126 0
1 215 226 0
1 215 217 0
1 -215 -228 0
1 -215 227 0
1 213 -216 0
1 213 229 0
1 213 137 0
1 -213 139 0
1 -213 -226 0
1 -213 -230 0
1 213 -215 0
1 213 140 0
1 213 -127 0
1 -213 130 0
1 213 -227 0
1 -147 134 0
1 147 221 0
1 147 -124 0
1 -147 74 0
1 -147 214 0
1 -147 125 0
1 147 223 0
1 -147 120 0
1 147 -132 0
1 -134 72 0
1 -134 -221 0
1 134 -118 0
1 -134 122 0
1 -134 133 0
1 -134 -214 0
1 -134 120 0
1 -134 123 0
1 134 -132 0
1 -151 221 0
1 151 -124 0
1 -151 231 0
1 151 -136 0
1 151 214 0
1 -151 125 0
1 -151 -138 0
1 -151 135 0
1 151 -132 0
1 -148 -221 0
1 148 222 0
1 -148 -231 0
1 148 136 0
1 148 133 0
1 148 -151 0
1 148 223 0
1 148 -135 0
1 -148 132 0
1 -223 134 0
1 -223 124 0
1 223 -145 0
1 223 232 0
1 223 -140 0
1 223 113 0
1 223 233 0
1 223 -157 0
1 -223 -150 0
1 -223 -148 0
1 -124 137 0
1 -124 115 0
1 -124 -234 0
1 124 -235 0
1 -124 -236 0
1 124 145 0
1 -124 -151 0
1 -124 223 0
1 -125 -134 0
1 -125 222 0
1 -125 -235 0
1 125 237 0
1 -125 -147 0
1 -125 238 0
1 -222 -134 0
1 -222 137 0
1 -222 -117 0
1 222 239 0
1 222 -235 0
1 -222 226 0
1 222 -151 0
1 -222 -147 0
1 -222 233 0
1 -222 227 0
1 -145 231 0
1 145 -79 0
1 -145 133 0
1 -145 -223 0
1 -145 138 0
1 145 -135 0
1 145 -150 0
1 -145 132 0
1 -150 132 0
1 150 -141 0
1 -150 -231 0
1 -150 -136 0
1 150 145 0
1 -150 138 0
1 -150 -81 0
1 -236 240 0
1 -236 141 0
1 236 -124 0
1 236 231 0
1 236 93 0
1 -236 -138 0
1 -236 223 0
1 236 -146 0
1 157 -240 0
1 -157 141 0
1 -157 231 0
1 -157 -136 0
1 157 149 0
1 157 -223 0
1 135 -166 0
1 -135 151 0
1 -135 168 0
1 135 -157 0
1 -135 123 0
1 135 -150 0
1 -136 -241 0
1 -136 166 0
1 -136 -154 0
1 -136 -236 0
1 136 242 0
1 136 -145 0
1 -136 151 0
1 136 243 0
1 -136 168 0
1 136 -135 0
1 138 244 0
1 138 231 0
1 138 235 0
1 -138 -236 0
1 -138 145 0
1 -138 245 0
1 -138 -150 0
1 -231 244 0
1 -231 -236 0
1 231 145 0
1 231 151 0
1 -231 138 0
1 -231 150 0
1 231 -148 0
1 154 -141 0
1 154 -152 0
1 154 86 0
1 -154 235 0
1 154 -136 0
1 154 -149 0
1 154 144 0
1 -154 -77 0
1 154 155 0
1 154 -146 0
1 155 240 0
1 155 141 0
1 155 -152 0
1 155 246 0
1 -155 64 0
1 -155 144 0
1 -155 77 0
1 -155 -233 0
1 -155 -135 0
1 -166 247 0
1 166 -244 0
1 166 -136 0
1 166 -248 0
1 -166 156 0
1 -166 77 0
1 166 168 0
1 166 135 0
1 168 -240 0
1 -168 247 0
1 -168 166 0
1 168 246 0
1 -168 -248 0
1 168 77 0
1 -168 245 0
1 240 131 0
1 -240 -249 0
1 240 -161 0
1 -240 -154 0
1 240 -236 0
1 240 -172 0
1 240 -155 0
1 -246 249 0
1 246 161 0
1 -246 -143 0
1 -246 -250 0
1 246 -163 0
1 246 -168 0
1 -246 -155 0
1 -146 251 0
1 -146 166 0
1 -146 149 0
1 -146 252 0
1 146 155 0
1 146 -157 0
1 -146 132 0
1 -149 241 0
1 -149 166 0
1 -149 154 0
1 149 -133 0
1 -149 253 0
1 149 -155 0
1 161 99 0
1 -161 152 0
1 161 -246 0
1 -161 -77 0
1 161 -159 0
1 163 247 0
1 -163 153 0
1 -163 152 0
1 -163 73 0
1 163 -100 0
1 163 243 0
1 163 -156 0
1 163 -158 0
1 -163 -159 0
1 173 240 0
1 -173 -153 0
1 173 -162 0
1 -173 160 0
1 -173 -172 0
1 -173 165 0
1 173 -164 0
1 172 -240 0
1 -172 173 0
1 -172 -153 0
1 -172 162 0
1 172 -160 0
1 172 246 0
1 172 -109 0
1 172 252 0
1 -153 -169 0
1 153 161 0
1 -153 142 0
1 153 254 0
1 153 166 0
1 -153 170 0
1 -153 163 0
1 153 156 0
1 153 -168 0
1 -153 -255 0
1 156 169 0
1 156 161 0
1 -156 256 0
1 -156 184 0
1 156 -170 0
1 -156 -255 0
1 -247 257 0
1 247 249 0
1 247 -141 0
1 -247 258 0
1 247 -259 0
1 -247 253 0
1 247 -163 0
1 248 257 0
1 248 161 0
1 -248 253 0
1 248 -172 0
1 248 163 0
1 169 111 0
1 169 162 0
1 -169 -160 0
1 -169 -167 0
1 -169 156 0
1 -169 164 0
1 169 159 0
1 169 -94 0
1 170 -169 0
1 170 -153 0
1 -170 -260 0
1 170 -156 0
1 255 -260 0
1 -255 -171 0
1 -255 -184 0
1 255 261 0
1 255 156 0
1 -255 -164 0
1 -255 262 0
1 255 -179 0
1 -184 260 0
1 184 -171 0
1 -184 -181 0
1 -184 94 0
1 162 -173 0
1 162 -73 0
1 162 -170 0
1 -162 172 0
1 162 -263 0
1 -162 195 0
1 -162 -178 0
1 -162 -255 0
1 164 -169 0
1 164 -162 0
1 -164 -176 0
1 164 -184 0
1 164 170 0
1 -164 -158 0
1 -164 263 0
1 164 -178 0
1 -260 -169 0
1 260 173 0
1 -260 152 0
1 260 -264 0
1 260 -265 0
1 260 256 0
1 260 184 0
1 260 172 0
1 260 165 0
1 -260 263 0
1 260 266 0
1 -260 -255 0
1 165 -173 0
1 165 267 0
1 165 260 0
1 -165 -184 0
1 -165 -172 0
1 -165 -266 0
1 178 174 0
1 178 -176 0
1 178 171 0
1 -178 -261 0
1 178 -167 0
1 178 88 0
1 178 -164 0
1 -178 268 0
1 178 -262 0
1 176 174 0
1 176 162 0
1 176 188 0
1 -176 171 0
1 176 261 0
1 -176 -167 0
1 -176 -178 0
1 195 -183 0
1 -195 -180 0
1 -195 -102 0
1 -195 266 0
1 -195 -262 0
1 193 174 0
1 -193 187 0
1 193 -164 0
1 -193 195 0
1 -193 -262 0
1 261 200 0
1 -261 -193 0
1 -261 -176 0
1 -261 184 0
1 -261 269 0
1 -261 270 0
1 261 -201 0
1 -261 195 0
1 261 -178 0
1 -261 -255 0
1 -262 -271 0
1 -262 -200 0
1 262 -193 0
1 -262 -176 0
1 -262 261 0
1 262 270 0
1 171 272 0
1 171 -267 0
1 -171 -193 0
1 -171 -160 0
1 -171 -184 0
1 171 -273 0
1 -171 -195 0
1 -171 -178 0
1 268 -272 0
1 268 -267 0
1 268 193 0
1 268 -176 0
1 -268 -273 0
1 268 -263 0
1 268 159 0
1 -268 195 0
1 268 178 0
1 268 255 0
1 190 180 0
1 190 -196 0
1 -190 -186 0
1 190 -263 0
1 190 262 0
1 -186 -174 0
1 186 196 0
1 186 267 0
1 -186 261 0
1 -186 177 0
1 -186 -102 0
1 186 -98 0
1 186 -190 0
1 -201 183 0
1 201 200 0
1 201 -196 0
1 201 261 0
1 201 -262 0
1 200 -183 0
1 -200 274 0
1 -200 -272 0
1 200 -196 0
1 200 275 0
1 200 110 0
1 200 262 0
1 -177 -276 0
1 177 -277 0
1 177 180 0
1 177 -200 0
1 -177 193 0
1 -177 278 0
1 -177 88 0
1 177 -195 0
1 180 276 0
1 -180 -200 0
1 -180 -193 0
1 180 279 0
1 180 278 0
1 -180 -177 0
1 -180 199 0
1 -180 -201 0
1 -180 195 0
1 182 183 0
1 182 -279 0
1 -182 280 0
1 182 -270 0
1 182 -201 0
1 182 -195 0
1 183 281 0
1 -183 186 0
1 183 182 0
1 183 -94 0
1 -199 197 0
1 -199 274 0
1 199 -275 0
1 -199 -196 0
1 199 -194 0
1 -199 -185 0
1 -197 271 0
1 197 -275 0
1 197 -177 0
1 197 199 0
1 197 -194 0
1 197 189 0
1 -197 110 0
1 278 -180 0
1 -278 -274 0
1 278 -275 0
1 278 -177 0
1 -278 198 0
1 -277 -274 0
1 277 278 0
1 277 177 0
1 -277 -194 0
1 277 189 0
1 277 282 0
1 -189 -200 0
1 189 278 0
1 -189 201 0
1 -275 -197 0
1 275 -200 0
1 275 175 0
1 275 -283 0
1 -275 -284 0
1 -194 276 0
1 194 277 0
1 -194 197 0
1 -194 -200 0
1 -194 -285 0
1 194 199 0
1 -274 276 0
1 274 285 0
1 274 279 0
1 274 -201 0
1 -283 286 0
1 -283 -287 0
1 283 -284 0
1 -283 189 0
1 -283 -198 0
1 -284 276 0
1 -284 286 0
1 -284 282 0
1 -284 -198 0
1 -288 -275 0
1 288 198 0
1 289 288 0
1 -289 189 0
1 289 198 0
1 -198 -277 0
1 -198 287 0
1 -198 -288 0
1 -198 -185 0
1 198 -289 0
1 -198 284 0
1 287 -277 0
1 287 -288 0
1 -287 -278 0
1 287 -289 0
1 -282 -283 0
1 282 110 0
1 282 -289 0
1 -286 196 0
1 286 -282 0
1 -286 289 0
1 -286 284 0
1 -217 -216 0
1 217 290 0
1 -217 -210 0
1 -217 207 0
1 217 -147 0
1 -217 291 0
1 216 134 0
1 -216 -213 0
1 -216 -210 0
1 -216 292 0
1 216 212 0
1 -216 211 0
1 230 293 0
1 230 -213 0
1 -230 218 0
1 -230 -294 0
1 -230 151 0
1 -230 215 0
1 230 220 0
1 -293 294 0
1 293 -219 0
1 -293 -215 0
1 -293 -295 0
1 -293 291 0
1 -293 292 0
1 -293 -148 0
1 -294 -293 0
1 -294 216 0
1 294 -237 0
1 -294 296 0
1 294 217 0
1 -294 -238 0
1 294 -292 0
1 -292 237 0
1 -292 294 0
1 292 -230 0
1 292 217 0
1 292 205 0
1 292 -227 0
1 290 209 0
1 -290 230 0
1 290 291 0
1 -291 216 0
1 291 -290 0
1 -291 -230 0
1 -291 -217 0
1 -291 -204 0
1 226 -222 0
1 -226 -220 0
1 -226 294 0
1 226 -214 0
1 -226 125 0
1 226 292 0
1 226 227 0
1 227 -218 0
1 227 -221 0
1 227 -222 0
1 227 219 0
1 227 -215 0
1 -227 -214 0
1 -227 -125 0
1 227 292 0
1 -227 150 0
1 237 229 0
1 -237 225 0
1 -237 -222 0
1 -237 -236 0
1 237 294 0
1 -237 219 0
1 -237 -238 0
1 -237 220 0
1 -238 -218 0
1 238 229 0
1 238 228 0
1 238 224 0
1 -238 -125 0
1 238 -157 0
1 238 -220 0
1 295 293 0
1 -295 297 0
1 295 235 0
1 -295 237 0
1 295 207 0
1 -295 -245 0
1 -295 238 0
1 295 -227 0
1 -218 293 0
1 218 -244 0
1 218 -235 0
1 -218 -230 0
1 218 295 0
1 218 -227 0
1 218 -211 0
1 -219 -293 0
1 219 220 0
1 -219 210 0
1 219 226 0
1 219 -298 0
1 -219 -230 0
1 219 238 0
1 219 -227 0
1 -220 293 0
1 -220 -297 0
1 -220 -226 0
1 -220 -219 0
1 -220 299 0
1 220 -212 0
1 -220 227 0
1 -220 300 0
1 235 225 0
1 235 -222 0
1 -235 -154 0
1 -235 -231 0
1 -235 228 0
1 235 -224 0
1 235 233 0
1 233 218 0
1 233 -229 0
1 -233 222 0
1 233 231 0
1 -233 -235 0
1 -233 -224 0
1 233 125 0
1 -233 155 0
1 244 -218 0
1 244 301 0
1 244 239 0
1 -244 -166 0
1 -244 -231 0
1 244 -224 0
1 -244 -245 0
1 -245 -225 0
1 245 -244 0
1 -245 -228 0
1 245 -301 0
1 -224 302 0
1 224 225 0
1 -224 -237 0
1 224 233 0
1 224 -238 0
1 225 302 0
1 225 -221 0
1 -225 244 0
1 -225 252 0
1 225 224 0
1 228 -229 0
1 -228 302 0
1 228 -303 0
1 -228 -235 0
1 228 -237 0
1 -228 -304 0
1 -228 215 0
1 228 305 0
1 228 299 0
1 228 238 0
1 -229 -244 0
1 -229 -235 0
1 -229 -245 0
1 229 -238 0
1 -241 -239 0
1 241 -234 0
1 -241 -231 0
1 241 -149 0
1 241 -243 0
1 -241 232 0
1 -241 146 0
1 -243 239 0
1 -243 -231 0
1 -243 149 0
1 -243 163 0
1 -243 299 0
1 -243 -232 0
1 -243 138 0
1 -243 146 0
1 -306 -173 0
1 -306 225 0
1 -306 -303 0
1 -306 307 0
1 306 242 0
1 -306 -149 0
1 -306 252 0
1 -306 224 0
1 306 232 0
1 -306 308 0
1 306 309 0
1 -252 -306 0
1 252 -225 0
1 -252 239 0
1 252 242 0
1 -252 -172 0
1 252 -224 0
1 252 -146 0
1 -232 257 0
1 232 -306 0
1 -232 241 0
1 -232 -244 0
1 232 -234 0
1 -232 253 0
1 232 252 0
1 232 -243 0
1 232 -223 0
1 -232 -310 0
1 234 257 0
1 234 306 0
1 -234 -241 0
1 234 -244 0
1 -234 311 0
1 -234 -243 0
1 234 232 0
1 -234 -312 0
1 -301 313 0
1 301 -306 0
1 -301 244 0
1 -301 -311 0
1 -301 314 0
1 301 -304 0
1 -301 252 0
1 -301 -125 0
1 -301 245 0
1 -239 -313 0
1 -239 -306 0
1 -239 222 0
1 239 -244 0
1 239 311 0
1 -239 -252 0
1 -239 243 0
1 239 245 0
1 239 -312 0
1 249 -302 0
1 -249 -247 0
1 249 -307 0
1 -249 149 0
1 -249 246 0
1 -249 -253 0
1 -249 -248 0
1 -249 -232 0
1 -249 309 0
1 -253 240 0
1 253 247 0
1 253 -307 0
1 -253 -242 0
1 253 -149 0
1 -253 -246 0
1 -253 248 0
1 -253 -232 0
1 253 308 0
1 257 -251 0
1 257 -313 0
1 -257 247 0
1 257 -307 0
1 -257 242 0
1 257 -259 0
1 -257 250 0
1 257 -308 0
1 257 -309 0
1 -259 -251 0
1 -259 -315 0
1 -259 -247 0
1 259 -234 0
1 259 307 0
1 259 248 0
1 -259 -232 0
1 259 308 0
1 -309 257 0
1 309 -306 0
1 309 242 0
1 -309 253 0
1 -309 -252 0
1 309 266 0
1 309 -316 0
1 242 257 0
1 242 -249 0
1 242 -306 0
1 242 -317 0
1 -242 -259 0
1 242 -253 0
1 -242 266 0
1 -308 307 0
1 -308 -311 0
1 -308 -259 0
1 -308 253 0
1 -308 -318 0
1 -308 -319 0
1 -308 138 0
1 308 320 0
1 307 -257 0
1 -307 -306 0
1 -307 -321 0
1 307 322 0
1 307 323 0
1 307 -252 0
1 -307 -319 0
1 307 308 0
1 -256 -315 0
1 -256 -247 0
1 -256 153 0
1 256 -176 0
1 256 -311 0
1 256 -250 0
1 256 248 0
1 -256 -156 0
1 256 -165 0
1 256 -309 0
1 -266 -251 0
1 266 315 0
1 266 260 0
1 -266 -324 0
1 266 -250 0
1 266 -165 0
1 -265 -258 0
1 265 254 0
1 265 260 0
1 -265 -193 0
1 -265 322 0
1 265 250 0
1 265 325 0
1 315 -259 0
1 315 250 0
1 -315 -326 0
1 315 263 0
1 250 257 0
1 250 -315 0
1 250 265 0
1 250 -259 0
1 250 246 0
1 250 327 0
1 250 -273 0
1 -250 263 0
1 -250 -266 0
1 -251 -265 0
1 -251 256 0
1 251 319 0
1 251 -146 0
1 324 257 0
1 -324 251 0
1 -324 328 0
1 -324 -321 0
1 -324 -265 0
1 -324 326 0
1 324 -266 0
1 -263 -267 0
1 -263 325 0
1 -263 -190 0
1 -263 -164 0
1 263 319 0
1 263 -268 0
1 -267 -315 0
1 -267 -162 0
1 -267 -250 0
1 267 325 0
1 267 -329 0
1 -267 -165 0
1 273 272 0
1 -273 254 0
1 273 330 0
1 -273 250 0
1 -273 325 0
1 -273 201 0
1 -273 -331 0
1 -273 332 0
1 272 333 0
1 -272 -330 0
1 -272 250 0
1 272 325 0
1 272 273 0
1 272 -334 0
1 -272 -268 0
1 254 -335 0
1 254 281 0
1 254 -153 0
1 254 336 0
1 254 280 0
1 -254 -329 0
1 -254 273 0
1 254 266 0
1 -329 -335 0
1 -329 281 0
1 329 271 0
1 -329 -272 0
1 -329 -254 0
1 -329 -267 0
1 329 265 0
1 329 -156 0
1 -329 -273 0
1 329 -263 0
1 -329 266 0
1 -258 335 0
1 -258 -272 0
1 -258 -336 0
1 -258 -337 0
1 325 -328 0
1 -325 336 0
1 325 248 0
1 -325 -337 0
1 -325 263 0
1 -270 271 0
1 -270 254 0
1 270 -171 0
1 -270 329 0
1 270 -334 0
1 -271 328 0
1 -271 329 0
1 271 -334 0
1 271 -268 0
1 -271 -262 0
1 -280 -183 0
1 -280 264 0
1 280 -330 0
1 -280 338 0
1 -280 -269 0
1 -280 182 0
1 280 278 0
1 280 332 0
1 -280 -339 0
1 281 183 0
1 281 254 0
1 -281 -264 0
1 281 182 0
1 281 -280 0
1 281 334 0
1 -281 -332 0
1 -330 272 0
1 330 162 0
1 330 285 0
1 -330 -280 0
1 -330 270 0
1 332 276 0
1 -332 271 0
1 -332 272 0
1 332 -285 0
1 -332 279 0
1 -332 -270 0
1 332 164 0
1 -332 -340 0
1 -264 -335 0
1 -264 -281 0
1 -264 271 0
1 -264 280 0
1 -264 334 0
1 334 -335 0
1 -334 272 0
1 -334 -264 0
1 334 341 0
1 -334 270 0
1 334 -165 0
1 -334 -342 0
1 279 -276 0
1 -279 183 0
1 -279 -180 0
1 -279 -269 0
1 279 -336 0
1 279 194 0
1 -279 332 0
1 -279 343 0
1 -279 339 0
1 -276 183 0
1 276 -180 0
1 -276 274 0
1 -276 -338 0
1 -276 -194 0
1 -276 343 0
1 276 -339 0
1 -285 -330 0
1 -285 -338 0
1 -285 -288 0
1 -340 274 0
1 -340 285 0
1 340 342 0
1 -269 -281 0
1 269 -261 0
1 269 340 0
1 339 276 0
1 339 269 0
1 339 -280 0
1 -339 -340 0
1 338 -276 0
1 -338 171 0
1 338 285 0
1 338 -279 0
1 -338 -340 0
1 -343 338 0
1 343 280 0
1 343 268 0
1 -297 -218 0
1 -297 241 0
1 -297 -344 0
1 -297 -219 0
1 -297 -299 0
1 297 345 0
1 299 -297 0
1 -299 -344 0
1 299 295 0
1 299 -228 0
1 299 -243 0
1 -299 346 0
1 -303 -344 0
1 303 -296 0
1 303 -298 0
1 303 347 0
1 303 -228 0
1 303 -345 0
1 303 -300 0
1 -348 349 0
1 -348 -303 0
1 348 344 0
1 -348 296 0
1 348 -347 0
1 -348 -345 0
1 296 313 0
1 -296 302 0
1 -296 303 0
1 296 -350 0
1 -296 -304 0
1 -296 299 0
1 346 304 0
1 346 -348 0
1 346 292 0
1 344 -303 0
1 -344 351 0
1 344 348 0
1 344 -345 0
1 345 303 0
1 -345 -297 0
1 345 -344 0
1 345 -348 0
1 -345 291 0
1 -302 -249 0
1 -302 -225 0
1 302 296 0
1 302 -298 0
1 -302 228 0
1 302 -346 0
1 -304 -349 0
1 304 302 0
1 304 -239 0
1 -304 -296 0
1 -304 -253 0
1 304 228 0
1 304 224 0
1 -304 301 0
1 -313 257 0
1 -313 352 0
1 313 353 0
1 -313 239 0
1 -313 -296 0
1 313 314 0
1 -313 298 0
1 -313 -301 0
1 -313 -300 0
1 314 -313 0
1 -314 -259 0
1 314 347 0
1 -314 -354 0
1 -347 349 0
1 347 -302 0
1 347 -355 0
1 -347 311 0
1 -347 -314 0
1 347 -295 0
1 347 -304 0
1 347 356 0
1 347 -357 0
1 -349 -358 0
1 349 -322 0
1 349 311 0
1 349 314 0
1 -349 348 0
1 349 357 0
1 349 -312 0
1 -298 -313 0
1 298 -302 0
1 298 355 0
1 -298 314 0
1 -300 313 0
1 300 298 0
1 -300 -348 0
1 312 -349 0
1 312 353 0
1 312 239 0
1 -312 234 0
1 312 -311 0
1 312 305 0
1 312 -301 0
1 -312 308 0
1 -311 -349 0
1 -311 -352 0
1 -311 -307 0
1 -311 -256 0
1 -311 -347 0
1 311 232 0
1 311 -308 0
1 -311 312 0
1 320 -352 0
1 -320 353 0
1 320 -359 0
1 320 -347 0
1 320 -354 0
1 -322 -349 0
1 -322 -353 0
1 322 -265 0
1 -322 347 0
1 322 360 0
1 -322 -320 0
1 354 361 0
1 354 -353 0
1 354 333 0
1 -354 322 0
1 -354 311 0
1 354 314 0
1 -354 -224 0
1 354 362 0
1 354 -331 0
1 -354 312 0
1 -353 -313 0
1 -353 -225 0
1 353 -333 0
1 -353 -363 0
1 353 -311 0
1 353 -354 0
1 -353 -320 0
1 305 -355 0
1 305 311 0
1 305 -228 0
1 -305 -364 0
1 -305 365 0
1 -305 -357 0
1 305 320 0
1 -352 366 0
1 352 -355 0
1 -352 -322 0
1 -352 365 0
1 -352 357 0
1 -319 251 0
1 -319 -353 0
1 319 321 0
1 319 360 0
1 319 357 0
1 319 -308 0
1 -319 -309 0
1 321 353 0
1 -321 -367 0
1 321 307 0
1 -321 -324 0
1 -321 -354 0
1 321 -360 0
1 -331 251 0
1 -331 323 0
1 331 -317 0
1 331 -354 0
1 -331 -273 0
1 331 -365 0
1 -331 310 0
1 331 -316 0
1 -333 -251 0
1 333 -353 0
1 -333 272 0
1 -333 368 0
1 -333 -323 0
1 -333 317 0
1 333 324 0
1 -333 310 0
1 -333 318 0
1 -310 333 0
1 310 -359 0
1 -310 -322 0
1 310 232 0
1 -310 -319 0
1 -359 369 0
1 -359 370 0
1 359 -328 0
1 359 333 0
1 -359 -234 0
1 -359 -371 0
1 359 337 0
1 359 319 0
1 360 369 0
1 360 -367 0
1 -360 371 0
1 -360 -331 0
1 -360 319 0
1 -367 372 0
1 -367 -366 0
1 367 333 0
1 367 -239 0
1 367 362 0
1 367 -331 0
1 367 319 0
1 326 258 0
1 -326 -323 0
1 326 -310 0
1 -326 318 0
1 328 -251 0
1 328 -271 0
1 328 -258 0
1 328 366 0
1 -328 326 0
1 328 318 0
1 -337 373 0
1 337 -374 0
1 -337 258 0
1 -337 359 0
1 -337 -323 0
1 -337 -327 0
1 -337 325 0
1 337 -375 0
1 337 -316 0
1 370 373 0
1 -370 -281 0
1 370 -374 0
1 370 -359 0
1 370 -327 0
1 370 -337 0
1 316 335 0
1 -316 336 0
1 -317 -335 0
1 317 370 0
1 317 -316 0
1 317 -333 0
1 317 -341 0
1 317 -336 0
1 -317 -337 0
1 -317 326 0
1 -317 -331 0
1 -317 -342 0
1 318 376 0
1 318 369 0
1 -318 -370 0
1 -318 328 0
1 -318 333 0
1 -318 -377 0
1 318 371 0
1 -318 326 0
1 -318 308 0
1 323 376 0
1 -323 369 0
1 323 328 0
1 -323 377 0
1 -323 -371 0
1 323 337 0
1 323 -331 0
1 336 -374 0
1 336 -264 0
1 336 317 0
1 -336 -378 0
1 -336 279 0
1 336 -329 0
1 -335 276 0
1 335 373 0
1 -335 374 0
1 335 -317 0
1 335 378 0
1 335 -327 0
1 -341 373 0
1 -341 -374 0
1 -341 316 0
1 341 285 0
1 341 378 0
1 341 334 0
1 -341 342 0
1 -342 374 0
1 -342 264 0
1 -342 -317 0
1 342 341 0
1 -342 340 0
1 -342 316 0
1 -374 335 0
1 -374 315 0
1 374 336 0
1 -374 -327 0
1 -327 335 0
1 327 374 0
1 327 341 0
1 -327 -250 0
1 -327 -337 0
1 -373 -370 0
1 373 341 0
1 -373 -378 0
1 373 -336 0
1 378 335 0
1 -378 373 0
1 -378 -341 0
1 378 342 0
1 357 379 0
1 357 -349 0
1 357 -355 0
1 -357 351 0
1 357 298 0
1 357 347 0
1 -357 -305 0
1 357 -319 0
1 -355 349 0
1 355 350 0
1 355 -298 0
1 355 379 0
1 355 -380 0
1 365 381 0
1 -365 -358 0
1 -365 -352 0
1 365 -368 0
1 -365 -356 0
1 -365 379 0
1 368 358 0
1 -368 -352 0
1 368 -333 0
1 368 -351 0
1 -368 -382 0
1 368 356 0
1 -368 365 0
1 368 379 0
1 350 -372 0
1 350 -366 0
1 -350 355 0
1 350 296 0
1 -350 362 0
1 -350 365 0
1 380 372 0
1 380 368 0
1 -380 -355 0
1 -380 350 0
1 -380 375 0
1 -380 362 0
1 -380 -365 0
1 -380 -346 0
1 351 355 0
1 351 -357 0
1 -379 355 0
1 379 345 0
1 379 365 0
1 362 -366 0
1 362 -367 0
1 362 -356 0
1 -362 305 0
1 362 -354 0
1 366 381 0
1 -366 -358 0
1 -366 -328 0
1 366 -350 0
1 -366 -356 0
1 366 305 0
1 366 -362 0
1 -375 383 0
1 375 350 0
1 375 -356 0
1 375 380 0
1 -372 370 0
1 -372 -382 0
1 372 356 0
1 -372 -375 0
1 -372 -364 0
1 -356 369 0
1 -356 358 0
1 -356 372 0
1 356 -366 0
1 -356 368 0
1 -356 377 0
1 356 -371 0
1 356 -362 0
1 -358 369 0
1 358 -372 0
1 -358 -366 0
1 -358 368 0
1 -358 -377 0
1 358 371 0
1 -382 366 0
1 -381 372 0
1 -381 368 0
1 381 382 0
1 -381 362 0
1 371 -358 0
1 -371 383 0
1 -371 -356 0
1 -371 -360 0
1 -371 310 0
1 369 -383 0
1 -369 359 0
1 369 -371 0
1 -369 -361 0
1 369 360 0
1 369 -318 0
1 -377 376 0
1 377 358 0
1 377 383 0
1 377 363 0
1 -377 323 0
1 377 341 0
1 377 -356 0
1 377 364 0
1 -377 -318 0
1 376 363 0
1 -376 -377 0
1 376 -356 0
1 -376 -364 0
1 -376 -361 0
1 -376 -318 0
1 361 -369 0
1 361 363 0
1 361 -371 0
1 -361 -375 0
1 -361 354 0
1 363 -372 0
1 -363 371 0
1 363 -375 0
1 -363 -361 0
1 -364 369 0
1 -383 -376 0
1 383 -369 0
1 383 375 0
